(set-logic HORN)

(declare-fun inv-f
             (Int
              Int
              Int
              Int
              Int
              Int
              Int
              Int
              Int
              Int
              Int
              Int
              Int
              Int
              Int
              Int
              Int
              Int
              Int
              Int)
             Bool)
(assert (forall ((A Int)
         (B Int)
         (C Int)
         (D Int)
         (E Int)
         (F Int)
         (G Int)
         (H Int)
         (I Int)
         (J Int)
         (K Int)
         (L Int)
         (M Int)
         (N Int)
         (O Int)
         (P Int)
         (Q Int)
         (R Int)
         (S Int)
         (T Int))
  (let ((a!1 (and (inv-f T S R Q P O N M L K J I H G F E D C B A)
                     (= (- T M) 0)
                     (= (- S I) 0)
                     (= (- R F) 0)
                     (< (- C M) 0)
                     (= (- Q C) 0)
                     (not (= (- M I) 0))
                     (= (- P A) 0)
                     (= (+ (- 1) A) 0))))
       (=> a!1 false))
    ))
(assert (forall ((A Int)
         (B Int)
         (C Int)
         (D Int)
         (E Int)
         (F Int)
         (G Int)
         (H Int)
         (I Int)
         (J Int)
         (K Int)
         (L Int)
         (M Int)
         (N Int)
         (O Int)
         (P Int)
         (Q Int)
         (R Int)
         (S Int)
         (T Int))
  (=> (and (= (- T N) 0)
              (= (- S J) 0)
              (= (- R G) 0)
              (= (- P A) 0)
              (= (+ (- 1) G) 0)
              (= J 0)
              (= N 0)
              (= (+ (- 1) A) 0))
         (inv-f T S R Q P O N M L K J I H G F E D C B A))
    ))
(assert (forall ((A Int)
         (B Int)
         (C Int)
         (D Int)
         (E Int)
         (F Int)
         (G Int)
         (H Int)
         (I Int)
         (J Int)
         (K Int)
         (L Int)
         (M Int)
         (N Int)
         (O Int)
         (P Int)
         (Q Int)
         (R Int)
         (S Int)
         (T Int)
         (U Int)
         (V Int)
         (W Int)
         (X Int)
         (Y Int)
         (Z Int)
         (A1 Int)
         (B1 Int)
         (C1 Int)
         (D1 Int)
         (E1 Int)
         (F1 Int)
         (G1 Int)
         (H1 Int)
         (I1 Int)
         (J1 Int)
         (K1 Int)
         (L1 Int)
         (M1 Int)
         (N1 Int))
  (let ((a!1 (and (= (- T A1) 0) (= (- O Z) 0) (= (- L Y) 0))))
     (let ((a!2 (and a!1
                     (>= (- I T) 0)
                     (= (+ (- (- 1) T) S) 0)
                     (= (+ (- (- 827) L) K) 0)
                     (= (- (- N O) F) 0)
                     (= (+ (- 224 K) J) 0)
                     (= (- S N1) 0)
                     (= (- N C1) 0)
                     (= (- J R) 0)
                     (= (- X I) 0)
                     (= (- G I) 0)
                     (= (- W F) 0)
                     (= (- E F) 0))))
     (let ((a!3 (or (and a!1
                         (= (- T N1) 0)
                         (= (- O C1) 0)
                         (= (- L R) 0)
                         (= (- X I) 0)
                         (= (- G I) 0)
                         (= (- Z C1) 0)
                         (= (- Y R) 0)
                         (= (- W E) 0))
                    a!2)))
       (=> (and (inv-f A1 Z Y X W V U T S Q P O N M L K J I H F) a!3)
           (inv-f N1 C1 R G E D C B A M1 L1 K1 J1 I1 H1 G1 F1 E1 D1 B1)))))
    ))


(check-sat)
(exit)
